c 4_3_checker.cnf
c
c field = 4
c formula set type = 3_checker
c
p cnf 4 20
0 
2 
4 
-8 
1 
3 
5 
-9 
2 
4 
8 
-0 
3 
5 
9 
-1 
2 
4 
8 
-10 
3 
5 
9 
-11 
4 
8 
10 
-2 
5 
9 
11 
-3 
4 
8 
10 
-12 
5 
9 
11 
-13 
8 
10 
12 
-4 
9 
11 
13 
-5 
8 
10 
12 
-14 
9 
11 
13 
-15 
36 
66 
96 
-126 
37 
67 
97 
-127 
38 
70 
102 
-134 
39 
71 
103 
-135 
34 
62 
90 
-6 
35 
63 
91 
-7 
